* #variable= 795 #constraint= 932 
+1 x496 -1 x31 = 0 ;
+1 x496 -1 x736 = 0 ;
-1 x31 +1 x1 >= 0 ;
-1 x31 +1 x16 >= 0 ;
+1 x31 -1 x1 -1 x16 >= -1 ;
+1 x31 +2 x46 +4 x61 +8 x76 +16 x91 +32 x106 +64 x121 +128 x136 +256 x151 +512 x166 +1024 x181 +2048 x196 +4096 x211 +8192 x226 +16384 x241 +2 x32 +4 x47 +8 x62 +16 x77 +32 x92 +64 x107 +128 x122 +256 x137 +512 x152 +1024 x167 +2048 x182 +4096 x197 +8192 x212 +16384 x227 +32768 x242 +4 x33 +8 x48 +16 x63 +32 x78 +64 x93 +128 x108 +256 x123 +512 x138 +1024 x153 +2048 x168 +4096 x183 +8192 x198 +16384 x213 +32768 x228 +65536 x243 +8 x34 +16 x49 +32 x64 +64 x79 +128 x94 +256 x109 +512 x124 +1024 x139 +2048 x154 +4096 x169 +8192 x184 +16384 x199 +32768 x214 +65536 x229 +131072 x244 +16 x35 +32 x50 +64 x65 +128 x80 +256 x95 +512 x110 +1024 x125 +2048 x140 +4096 x155 +8192 x170 +16384 x185 +32768 x200 +65536 x215 +131072 x230 +262144 x245 +32 x36 +64 x51 +128 x66 +256 x81 +512 x96 +1024 x111 +2048 x126 +4096 x141 +8192 x156 +16384 x171 +32768 x186 +65536 x201 +131072 x216 +262144 x231 +524288 x246 +64 x37 +128 x52 +256 x67 +512 x82 +1024 x97 +2048 x112 +4096 x127 +8192 x142 +16384 x157 +32768 x172 +65536 x187 +131072 x202 +262144 x217 +524288 x232 +1048576 x247 +128 x38 +256 x53 +512 x68 +1024 x83 +2048 x98 +4096 x113 +8192 x128 +16384 x143 +32768 x158 +65536 x173 +131072 x188 +262144 x203 +524288 x218 +1048576 x233 +2097152 x248 +256 x39 +512 x54 +1024 x69 +2048 x84 +4096 x99 +8192 x114 +16384 x129 +32768 x144 +65536 x159 +131072 x174 +262144 x189 +524288 x204 +1048576 x219 +2097152 x234 +4194304 x249 +512 x40 +1024 x55 +2048 x70 +4096 x85 +8192 x100 +16384 x115 +32768 x130 +65536 x145 +131072 x160 +262144 x175 +524288 x190 +1048576 x205 +2097152 x220 +4194304 x235 +8388608 x250 +1024 x41 +2048 x56 +4096 x71 +8192 x86 +16384 x101 +32768 x116 +65536 x131 +131072 x146 +262144 x161 +524288 x176 +1048576 x191 +2097152 x206 +4194304 x221 +8388608 x236 +16777216 x251 +2048 x42 +4096 x57 +8192 x72 +16384 x87 +32768 x102 +65536 x117 +131072 x132 +262144 x147 +524288 x162 +1048576 x177 +2097152 x192 +4194304 x207 +8388608 x222 +16777216 x237 +33554432 x252 +4096 x43 +8192 x58 +16384 x73 +32768 x88 +65536 x103 +131072 x118 +262144 x133 +524288 x148 +1048576 x163 +2097152 x178 +4194304 x193 +8388608 x208 +16777216 x223 +33554432 x238 +67108864 x253 +8192 x44 +16384 x59 +32768 x74 +65536 x89 +131072 x104 +262144 x119 +524288 x134 +1048576 x149 +2097152 x164 +4194304 x179 +8388608 x194 +16777216 x209 +33554432 x224 +67108864 x239 +134217728 x254 +16384 x45 +32768 x60 +65536 x75 +131072 x90 +262144 x105 +524288 x120 +1048576 x135 +2097152 x150 +4194304 x165 +8388608 x180 +16777216 x195 +33554432 x210 +67108864 x225 +134217728 x240 +268435456 x255 -1 x766 -2 x767 -4 x768 -8 x769 -16 x770 -32 x771 -64 x772 -128 x773 -256 x774 -512 x775 -1024 x776 -2048 x777 -4096 x778 -8192 x779 -16384 x780 -32768 x781 -65536 x782 -131072 x783 -262144 x784 -524288 x785 -1048576 x786 -2097152 x787 -4194304 x788 -8388608 x789 -16777216 x790 -33554432 x791 -67108864 x792 -134217728 x793 -268435456 x794 -536870912 x795 = 0; 
+1 x766 -1 x736 +2 x767 -2 x737 +4 x768 -4 x738 +8 x769 -8 x739 +16 x770 -16 x740 +32 x771 -32 x741 +64 x772 -64 x742 +128 x773 -128 x743 +256 x774 -256 x744 +512 x775 -512 x745 +1024 x776 -1024 x746 +2048 x777 -2048 x747 +4096 x778 -4096 x748 +8192 x779 -8192 x749 +16384 x780 -16384 x750 +32768 x781 -32768 x751 +65536 x782 -65536 x752 +131072 x783 -131072 x753 +262144 x784 -262144 x754 +524288 x785 -524288 x755 +1048576 x786 -1048576 x756 +2097152 x787 -2097152 x757 +4194304 x788 -4194304 x758 +8388608 x789 -8388608 x759 +16777216 x790 -16777216 x760 +33554432 x791 -33554432 x761 +67108864 x792 -67108864 x762 +134217728 x793 -134217728 x763 +268435456 x794 -268435456 x764 +536870912 x795 -536870912 x765 >= 1 ;
+1 x512 -1 x46 = 0 ;
+2 x257 +1 x497 -1 x32 -1 x512 = 0 ;
+1 x497 -1 x737 = 0 ;
-1 x46 +1 x2 >= 0 ;
-1 x46 +1 x16 >= 0 ;
+1 x46 -1 x2 -1 x16 >= -1 ;
-1 x32 +1 x1 >= 0 ;
-1 x32 +1 x17 >= 0 ;
+1 x32 -1 x1 -1 x17 >= -1 ;
+1 x528 -1 x61 = 0 ;
+2 x273 +1 x513 -1 x47 -1 x257 -1 x528 = 0 ;
+2 x258 +1 x498 -1 x33 -1 x513 = 0 ;
+1 x498 -1 x738 = 0 ;
-1 x61 +1 x3 >= 0 ;
-1 x61 +1 x16 >= 0 ;
+1 x61 -1 x3 -1 x16 >= -1 ;
-1 x47 +1 x2 >= 0 ;
-1 x47 +1 x17 >= 0 ;
+1 x47 -1 x2 -1 x17 >= -1 ;
-1 x33 +1 x1 >= 0 ;
-1 x33 +1 x18 >= 0 ;
+1 x33 -1 x1 -1 x18 >= -1 ;
+1 x544 -1 x76 = 0 ;
+2 x289 +1 x529 -1 x62 -1 x273 -1 x544 = 0 ;
+2 x274 +1 x514 -1 x48 -1 x258 -1 x529 = 0 ;
+2 x259 +1 x499 -1 x34 -1 x514 = 0 ;
+1 x499 -1 x739 = 0 ;
-1 x76 +1 x4 >= 0 ;
-1 x76 +1 x16 >= 0 ;
+1 x76 -1 x4 -1 x16 >= -1 ;
-1 x62 +1 x3 >= 0 ;
-1 x62 +1 x17 >= 0 ;
+1 x62 -1 x3 -1 x17 >= -1 ;
-1 x48 +1 x2 >= 0 ;
-1 x48 +1 x18 >= 0 ;
+1 x48 -1 x2 -1 x18 >= -1 ;
-1 x34 +1 x1 >= 0 ;
-1 x34 +1 x19 >= 0 ;
+1 x34 -1 x1 -1 x19 >= -1 ;
+1 x560 -1 x91 = 0 ;
+2 x305 +1 x545 -1 x77 -1 x289 -1 x560 = 0 ;
+2 x290 +1 x530 -1 x63 -1 x274 -1 x545 = 0 ;
+2 x275 +1 x515 -1 x49 -1 x259 -1 x530 = 0 ;
+2 x260 +1 x500 -1 x35 -1 x515 = 0 ;
+1 x500 -1 x740 = 0 ;
-1 x91 +1 x5 >= 0 ;
-1 x91 +1 x16 >= 0 ;
+1 x91 -1 x5 -1 x16 >= -1 ;
-1 x77 +1 x4 >= 0 ;
-1 x77 +1 x17 >= 0 ;
+1 x77 -1 x4 -1 x17 >= -1 ;
-1 x63 +1 x3 >= 0 ;
-1 x63 +1 x18 >= 0 ;
+1 x63 -1 x3 -1 x18 >= -1 ;
-1 x49 +1 x2 >= 0 ;
-1 x49 +1 x19 >= 0 ;
+1 x49 -1 x2 -1 x19 >= -1 ;
-1 x35 +1 x1 >= 0 ;
-1 x35 +1 x20 >= 0 ;
+1 x35 -1 x1 -1 x20 >= -1 ;
+1 x576 -1 x106 = 0 ;
+2 x321 +1 x561 -1 x92 -1 x305 -1 x576 = 0 ;
+2 x306 +1 x546 -1 x78 -1 x290 -1 x561 = 0 ;
+2 x291 +1 x531 -1 x64 -1 x275 -1 x546 = 0 ;
+2 x276 +1 x516 -1 x50 -1 x260 -1 x531 = 0 ;
+2 x261 +1 x501 -1 x36 -1 x516 = 0 ;
+1 x501 -1 x741 = 0 ;
-1 x106 +1 x6 >= 0 ;
-1 x106 +1 x16 >= 0 ;
+1 x106 -1 x6 -1 x16 >= -1 ;
-1 x92 +1 x5 >= 0 ;
-1 x92 +1 x17 >= 0 ;
+1 x92 -1 x5 -1 x17 >= -1 ;
-1 x78 +1 x4 >= 0 ;
-1 x78 +1 x18 >= 0 ;
+1 x78 -1 x4 -1 x18 >= -1 ;
-1 x64 +1 x3 >= 0 ;
-1 x64 +1 x19 >= 0 ;
+1 x64 -1 x3 -1 x19 >= -1 ;
-1 x50 +1 x2 >= 0 ;
-1 x50 +1 x20 >= 0 ;
+1 x50 -1 x2 -1 x20 >= -1 ;
-1 x36 +1 x1 >= 0 ;
-1 x36 +1 x21 >= 0 ;
+1 x36 -1 x1 -1 x21 >= -1 ;
+1 x592 -1 x121 = 0 ;
+2 x337 +1 x577 -1 x107 -1 x321 -1 x592 = 0 ;
+2 x322 +1 x562 -1 x93 -1 x306 -1 x577 = 0 ;
+2 x307 +1 x547 -1 x79 -1 x291 -1 x562 = 0 ;
+2 x292 +1 x532 -1 x65 -1 x276 -1 x547 = 0 ;
+2 x277 +1 x517 -1 x51 -1 x261 -1 x532 = 0 ;
+2 x262 +1 x502 -1 x37 -1 x517 = 0 ;
+1 x502 -1 x742 = 0 ;
-1 x121 +1 x7 >= 0 ;
-1 x121 +1 x16 >= 0 ;
+1 x121 -1 x7 -1 x16 >= -1 ;
-1 x107 +1 x6 >= 0 ;
-1 x107 +1 x17 >= 0 ;
+1 x107 -1 x6 -1 x17 >= -1 ;
-1 x93 +1 x5 >= 0 ;
-1 x93 +1 x18 >= 0 ;
+1 x93 -1 x5 -1 x18 >= -1 ;
-1 x79 +1 x4 >= 0 ;
-1 x79 +1 x19 >= 0 ;
+1 x79 -1 x4 -1 x19 >= -1 ;
-1 x65 +1 x3 >= 0 ;
-1 x65 +1 x20 >= 0 ;
+1 x65 -1 x3 -1 x20 >= -1 ;
-1 x51 +1 x2 >= 0 ;
-1 x51 +1 x21 >= 0 ;
+1 x51 -1 x2 -1 x21 >= -1 ;
-1 x37 +1 x1 >= 0 ;
-1 x37 +1 x22 >= 0 ;
+1 x37 -1 x1 -1 x22 >= -1 ;
+1 x608 -1 x136 = 0 ;
+2 x353 +1 x593 -1 x122 -1 x337 -1 x608 = 0 ;
+2 x338 +1 x578 -1 x108 -1 x322 -1 x593 = 0 ;
+2 x323 +1 x563 -1 x94 -1 x307 -1 x578 = 0 ;
+2 x308 +1 x548 -1 x80 -1 x292 -1 x563 = 0 ;
+2 x293 +1 x533 -1 x66 -1 x277 -1 x548 = 0 ;
+2 x278 +1 x518 -1 x52 -1 x262 -1 x533 = 0 ;
+2 x263 +1 x503 -1 x38 -1 x518 = 0 ;
+1 x503 -1 x743 = 0 ;
-1 x136 +1 x8 >= 0 ;
-1 x136 +1 x16 >= 0 ;
+1 x136 -1 x8 -1 x16 >= -1 ;
-1 x122 +1 x7 >= 0 ;
-1 x122 +1 x17 >= 0 ;
+1 x122 -1 x7 -1 x17 >= -1 ;
-1 x108 +1 x6 >= 0 ;
-1 x108 +1 x18 >= 0 ;
+1 x108 -1 x6 -1 x18 >= -1 ;
-1 x94 +1 x5 >= 0 ;
-1 x94 +1 x19 >= 0 ;
+1 x94 -1 x5 -1 x19 >= -1 ;
-1 x80 +1 x4 >= 0 ;
-1 x80 +1 x20 >= 0 ;
+1 x80 -1 x4 -1 x20 >= -1 ;
-1 x66 +1 x3 >= 0 ;
-1 x66 +1 x21 >= 0 ;
+1 x66 -1 x3 -1 x21 >= -1 ;
-1 x52 +1 x2 >= 0 ;
-1 x52 +1 x22 >= 0 ;
+1 x52 -1 x2 -1 x22 >= -1 ;
-1 x38 +1 x1 >= 0 ;
-1 x38 +1 x23 >= 0 ;
+1 x38 -1 x1 -1 x23 >= -1 ;
+1 x624 -1 x151 = 0 ;
+2 x369 +1 x609 -1 x137 -1 x353 -1 x624 = 0 ;
+2 x354 +1 x594 -1 x123 -1 x338 -1 x609 = 0 ;
+2 x339 +1 x579 -1 x109 -1 x323 -1 x594 = 0 ;
+2 x324 +1 x564 -1 x95 -1 x308 -1 x579 = 0 ;
+2 x309 +1 x549 -1 x81 -1 x293 -1 x564 = 0 ;
+2 x294 +1 x534 -1 x67 -1 x278 -1 x549 = 0 ;
+2 x279 +1 x519 -1 x53 -1 x263 -1 x534 = 0 ;
+2 x264 +1 x504 -1 x39 -1 x519 = 0 ;
+1 x504 -1 x744 = 0 ;
-1 x151 +1 x9 >= 0 ;
-1 x151 +1 x16 >= 0 ;
+1 x151 -1 x9 -1 x16 >= -1 ;
-1 x137 +1 x8 >= 0 ;
-1 x137 +1 x17 >= 0 ;
+1 x137 -1 x8 -1 x17 >= -1 ;
-1 x123 +1 x7 >= 0 ;
-1 x123 +1 x18 >= 0 ;
+1 x123 -1 x7 -1 x18 >= -1 ;
-1 x109 +1 x6 >= 0 ;
-1 x109 +1 x19 >= 0 ;
+1 x109 -1 x6 -1 x19 >= -1 ;
-1 x95 +1 x5 >= 0 ;
-1 x95 +1 x20 >= 0 ;
+1 x95 -1 x5 -1 x20 >= -1 ;
-1 x81 +1 x4 >= 0 ;
-1 x81 +1 x21 >= 0 ;
+1 x81 -1 x4 -1 x21 >= -1 ;
-1 x67 +1 x3 >= 0 ;
-1 x67 +1 x22 >= 0 ;
+1 x67 -1 x3 -1 x22 >= -1 ;
-1 x53 +1 x2 >= 0 ;
-1 x53 +1 x23 >= 0 ;
+1 x53 -1 x2 -1 x23 >= -1 ;
-1 x39 +1 x1 >= 0 ;
-1 x39 +1 x24 >= 0 ;
+1 x39 -1 x1 -1 x24 >= -1 ;
+1 x640 -1 x166 = 0 ;
+2 x385 +1 x625 -1 x152 -1 x369 -1 x640 = 0 ;
+2 x370 +1 x610 -1 x138 -1 x354 -1 x625 = 0 ;
+2 x355 +1 x595 -1 x124 -1 x339 -1 x610 = 0 ;
+2 x340 +1 x580 -1 x110 -1 x324 -1 x595 = 0 ;
+2 x325 +1 x565 -1 x96 -1 x309 -1 x580 = 0 ;
+2 x310 +1 x550 -1 x82 -1 x294 -1 x565 = 0 ;
+2 x295 +1 x535 -1 x68 -1 x279 -1 x550 = 0 ;
+2 x280 +1 x520 -1 x54 -1 x264 -1 x535 = 0 ;
+2 x265 +1 x505 -1 x40 -1 x520 = 0 ;
+1 x505 -1 x745 = 0 ;
-1 x166 +1 x10 >= 0 ;
-1 x166 +1 x16 >= 0 ;
+1 x166 -1 x10 -1 x16 >= -1 ;
-1 x152 +1 x9 >= 0 ;
-1 x152 +1 x17 >= 0 ;
+1 x152 -1 x9 -1 x17 >= -1 ;
-1 x138 +1 x8 >= 0 ;
-1 x138 +1 x18 >= 0 ;
+1 x138 -1 x8 -1 x18 >= -1 ;
-1 x124 +1 x7 >= 0 ;
-1 x124 +1 x19 >= 0 ;
+1 x124 -1 x7 -1 x19 >= -1 ;
-1 x110 +1 x6 >= 0 ;
-1 x110 +1 x20 >= 0 ;
+1 x110 -1 x6 -1 x20 >= -1 ;
-1 x96 +1 x5 >= 0 ;
-1 x96 +1 x21 >= 0 ;
+1 x96 -1 x5 -1 x21 >= -1 ;
-1 x82 +1 x4 >= 0 ;
-1 x82 +1 x22 >= 0 ;
+1 x82 -1 x4 -1 x22 >= -1 ;
-1 x68 +1 x3 >= 0 ;
-1 x68 +1 x23 >= 0 ;
+1 x68 -1 x3 -1 x23 >= -1 ;
-1 x54 +1 x2 >= 0 ;
-1 x54 +1 x24 >= 0 ;
+1 x54 -1 x2 -1 x24 >= -1 ;
-1 x40 +1 x1 >= 0 ;
-1 x40 +1 x25 >= 0 ;
+1 x40 -1 x1 -1 x25 >= -1 ;
+1 x656 -1 x181 = 0 ;
+2 x401 +1 x641 -1 x167 -1 x385 -1 x656 = 0 ;
+2 x386 +1 x626 -1 x153 -1 x370 -1 x641 = 0 ;
+2 x371 +1 x611 -1 x139 -1 x355 -1 x626 = 0 ;
+2 x356 +1 x596 -1 x125 -1 x340 -1 x611 = 0 ;
+2 x341 +1 x581 -1 x111 -1 x325 -1 x596 = 0 ;
+2 x326 +1 x566 -1 x97 -1 x310 -1 x581 = 0 ;
+2 x311 +1 x551 -1 x83 -1 x295 -1 x566 = 0 ;
+2 x296 +1 x536 -1 x69 -1 x280 -1 x551 = 0 ;
+2 x281 +1 x521 -1 x55 -1 x265 -1 x536 = 0 ;
+2 x266 +1 x506 -1 x41 -1 x521 = 0 ;
+1 x506 -1 x746 = 0 ;
-1 x181 +1 x11 >= 0 ;
-1 x181 +1 x16 >= 0 ;
+1 x181 -1 x11 -1 x16 >= -1 ;
-1 x167 +1 x10 >= 0 ;
-1 x167 +1 x17 >= 0 ;
+1 x167 -1 x10 -1 x17 >= -1 ;
-1 x153 +1 x9 >= 0 ;
-1 x153 +1 x18 >= 0 ;
+1 x153 -1 x9 -1 x18 >= -1 ;
-1 x139 +1 x8 >= 0 ;
-1 x139 +1 x19 >= 0 ;
+1 x139 -1 x8 -1 x19 >= -1 ;
-1 x125 +1 x7 >= 0 ;
-1 x125 +1 x20 >= 0 ;
+1 x125 -1 x7 -1 x20 >= -1 ;
-1 x111 +1 x6 >= 0 ;
-1 x111 +1 x21 >= 0 ;
+1 x111 -1 x6 -1 x21 >= -1 ;
-1 x97 +1 x5 >= 0 ;
-1 x97 +1 x22 >= 0 ;
+1 x97 -1 x5 -1 x22 >= -1 ;
-1 x83 +1 x4 >= 0 ;
-1 x83 +1 x23 >= 0 ;
+1 x83 -1 x4 -1 x23 >= -1 ;
-1 x69 +1 x3 >= 0 ;
-1 x69 +1 x24 >= 0 ;
+1 x69 -1 x3 -1 x24 >= -1 ;
-1 x55 +1 x2 >= 0 ;
-1 x55 +1 x25 >= 0 ;
+1 x55 -1 x2 -1 x25 >= -1 ;
-1 x41 +1 x1 >= 0 ;
-1 x41 +1 x26 >= 0 ;
+1 x41 -1 x1 -1 x26 >= -1 ;
+1 x672 -1 x196 = 0 ;
+2 x417 +1 x657 -1 x182 -1 x401 -1 x672 = 0 ;
+2 x402 +1 x642 -1 x168 -1 x386 -1 x657 = 0 ;
+2 x387 +1 x627 -1 x154 -1 x371 -1 x642 = 0 ;
+2 x372 +1 x612 -1 x140 -1 x356 -1 x627 = 0 ;
+2 x357 +1 x597 -1 x126 -1 x341 -1 x612 = 0 ;
+2 x342 +1 x582 -1 x112 -1 x326 -1 x597 = 0 ;
+2 x327 +1 x567 -1 x98 -1 x311 -1 x582 = 0 ;
+2 x312 +1 x552 -1 x84 -1 x296 -1 x567 = 0 ;
+2 x297 +1 x537 -1 x70 -1 x281 -1 x552 = 0 ;
+2 x282 +1 x522 -1 x56 -1 x266 -1 x537 = 0 ;
+2 x267 +1 x507 -1 x42 -1 x522 = 0 ;
+1 x507 -1 x747 = 0 ;
-1 x196 +1 x12 >= 0 ;
-1 x196 +1 x16 >= 0 ;
+1 x196 -1 x12 -1 x16 >= -1 ;
-1 x182 +1 x11 >= 0 ;
-1 x182 +1 x17 >= 0 ;
+1 x182 -1 x11 -1 x17 >= -1 ;
-1 x168 +1 x10 >= 0 ;
-1 x168 +1 x18 >= 0 ;
+1 x168 -1 x10 -1 x18 >= -1 ;
-1 x154 +1 x9 >= 0 ;
-1 x154 +1 x19 >= 0 ;
+1 x154 -1 x9 -1 x19 >= -1 ;
-1 x140 +1 x8 >= 0 ;
-1 x140 +1 x20 >= 0 ;
+1 x140 -1 x8 -1 x20 >= -1 ;
-1 x126 +1 x7 >= 0 ;
-1 x126 +1 x21 >= 0 ;
+1 x126 -1 x7 -1 x21 >= -1 ;
-1 x112 +1 x6 >= 0 ;
-1 x112 +1 x22 >= 0 ;
+1 x112 -1 x6 -1 x22 >= -1 ;
-1 x98 +1 x5 >= 0 ;
-1 x98 +1 x23 >= 0 ;
+1 x98 -1 x5 -1 x23 >= -1 ;
-1 x84 +1 x4 >= 0 ;
-1 x84 +1 x24 >= 0 ;
+1 x84 -1 x4 -1 x24 >= -1 ;
-1 x70 +1 x3 >= 0 ;
-1 x70 +1 x25 >= 0 ;
+1 x70 -1 x3 -1 x25 >= -1 ;
-1 x56 +1 x2 >= 0 ;
-1 x56 +1 x26 >= 0 ;
+1 x56 -1 x2 -1 x26 >= -1 ;
-1 x42 +1 x1 >= 0 ;
-1 x42 +1 x27 >= 0 ;
+1 x42 -1 x1 -1 x27 >= -1 ;
+1 x688 -1 x211 = 0 ;
+2 x433 +1 x673 -1 x197 -1 x417 -1 x688 = 0 ;
+2 x418 +1 x658 -1 x183 -1 x402 -1 x673 = 0 ;
+2 x403 +1 x643 -1 x169 -1 x387 -1 x658 = 0 ;
+2 x388 +1 x628 -1 x155 -1 x372 -1 x643 = 0 ;
+2 x373 +1 x613 -1 x141 -1 x357 -1 x628 = 0 ;
+2 x358 +1 x598 -1 x127 -1 x342 -1 x613 = 0 ;
+2 x343 +1 x583 -1 x113 -1 x327 -1 x598 = 0 ;
+2 x328 +1 x568 -1 x99 -1 x312 -1 x583 = 0 ;
+2 x313 +1 x553 -1 x85 -1 x297 -1 x568 = 0 ;
+2 x298 +1 x538 -1 x71 -1 x282 -1 x553 = 0 ;
+2 x283 +1 x523 -1 x57 -1 x267 -1 x538 = 0 ;
+2 x268 +1 x508 -1 x43 -1 x523 = 0 ;
+1 x508 -1 x748 = 0 ;
-1 x211 +1 x13 >= 0 ;
-1 x211 +1 x16 >= 0 ;
+1 x211 -1 x13 -1 x16 >= -1 ;
-1 x197 +1 x12 >= 0 ;
-1 x197 +1 x17 >= 0 ;
+1 x197 -1 x12 -1 x17 >= -1 ;
-1 x183 +1 x11 >= 0 ;
-1 x183 +1 x18 >= 0 ;
+1 x183 -1 x11 -1 x18 >= -1 ;
-1 x169 +1 x10 >= 0 ;
-1 x169 +1 x19 >= 0 ;
+1 x169 -1 x10 -1 x19 >= -1 ;
-1 x155 +1 x9 >= 0 ;
-1 x155 +1 x20 >= 0 ;
+1 x155 -1 x9 -1 x20 >= -1 ;
-1 x141 +1 x8 >= 0 ;
-1 x141 +1 x21 >= 0 ;
+1 x141 -1 x8 -1 x21 >= -1 ;
-1 x127 +1 x7 >= 0 ;
-1 x127 +1 x22 >= 0 ;
+1 x127 -1 x7 -1 x22 >= -1 ;
-1 x113 +1 x6 >= 0 ;
-1 x113 +1 x23 >= 0 ;
+1 x113 -1 x6 -1 x23 >= -1 ;
-1 x99 +1 x5 >= 0 ;
-1 x99 +1 x24 >= 0 ;
+1 x99 -1 x5 -1 x24 >= -1 ;
-1 x85 +1 x4 >= 0 ;
-1 x85 +1 x25 >= 0 ;
+1 x85 -1 x4 -1 x25 >= -1 ;
-1 x71 +1 x3 >= 0 ;
-1 x71 +1 x26 >= 0 ;
+1 x71 -1 x3 -1 x26 >= -1 ;
-1 x57 +1 x2 >= 0 ;
-1 x57 +1 x27 >= 0 ;
+1 x57 -1 x2 -1 x27 >= -1 ;
-1 x43 +1 x1 >= 0 ;
-1 x43 +1 x28 >= 0 ;
+1 x43 -1 x1 -1 x28 >= -1 ;
+1 x704 -1 x226 = 0 ;
+2 x449 +1 x689 -1 x212 -1 x433 -1 x704 = 0 ;
+2 x434 +1 x674 -1 x198 -1 x418 -1 x689 = 0 ;
+2 x419 +1 x659 -1 x184 -1 x403 -1 x674 = 0 ;
+2 x404 +1 x644 -1 x170 -1 x388 -1 x659 = 0 ;
+2 x389 +1 x629 -1 x156 -1 x373 -1 x644 = 0 ;
+2 x374 +1 x614 -1 x142 -1 x358 -1 x629 = 0 ;
+2 x359 +1 x599 -1 x128 -1 x343 -1 x614 = 0 ;
+2 x344 +1 x584 -1 x114 -1 x328 -1 x599 = 0 ;
+2 x329 +1 x569 -1 x100 -1 x313 -1 x584 = 0 ;
+2 x314 +1 x554 -1 x86 -1 x298 -1 x569 = 0 ;
+2 x299 +1 x539 -1 x72 -1 x283 -1 x554 = 0 ;
+2 x284 +1 x524 -1 x58 -1 x268 -1 x539 = 0 ;
+2 x269 +1 x509 -1 x44 -1 x524 = 0 ;
+1 x509 -1 x749 = 0 ;
-1 x226 +1 x14 >= 0 ;
-1 x226 +1 x16 >= 0 ;
+1 x226 -1 x14 -1 x16 >= -1 ;
-1 x212 +1 x13 >= 0 ;
-1 x212 +1 x17 >= 0 ;
+1 x212 -1 x13 -1 x17 >= -1 ;
-1 x198 +1 x12 >= 0 ;
-1 x198 +1 x18 >= 0 ;
+1 x198 -1 x12 -1 x18 >= -1 ;
-1 x184 +1 x11 >= 0 ;
-1 x184 +1 x19 >= 0 ;
+1 x184 -1 x11 -1 x19 >= -1 ;
-1 x170 +1 x10 >= 0 ;
-1 x170 +1 x20 >= 0 ;
+1 x170 -1 x10 -1 x20 >= -1 ;
-1 x156 +1 x9 >= 0 ;
-1 x156 +1 x21 >= 0 ;
+1 x156 -1 x9 -1 x21 >= -1 ;
-1 x142 +1 x8 >= 0 ;
-1 x142 +1 x22 >= 0 ;
+1 x142 -1 x8 -1 x22 >= -1 ;
-1 x128 +1 x7 >= 0 ;
-1 x128 +1 x23 >= 0 ;
+1 x128 -1 x7 -1 x23 >= -1 ;
-1 x114 +1 x6 >= 0 ;
-1 x114 +1 x24 >= 0 ;
+1 x114 -1 x6 -1 x24 >= -1 ;
-1 x100 +1 x5 >= 0 ;
-1 x100 +1 x25 >= 0 ;
+1 x100 -1 x5 -1 x25 >= -1 ;
-1 x86 +1 x4 >= 0 ;
-1 x86 +1 x26 >= 0 ;
+1 x86 -1 x4 -1 x26 >= -1 ;
-1 x72 +1 x3 >= 0 ;
-1 x72 +1 x27 >= 0 ;
+1 x72 -1 x3 -1 x27 >= -1 ;
-1 x58 +1 x2 >= 0 ;
-1 x58 +1 x28 >= 0 ;
+1 x58 -1 x2 -1 x28 >= -1 ;
-1 x44 +1 x1 >= 0 ;
-1 x44 +1 x29 >= 0 ;
+1 x44 -1 x1 -1 x29 >= -1 ;
+1 x720 -1 x241 = 0 ;
+2 x465 +1 x705 -1 x227 -1 x449 -1 x720 = 0 ;
+2 x450 +1 x690 -1 x213 -1 x434 -1 x705 = 0 ;
+2 x435 +1 x675 -1 x199 -1 x419 -1 x690 = 0 ;
+2 x420 +1 x660 -1 x185 -1 x404 -1 x675 = 0 ;
+2 x405 +1 x645 -1 x171 -1 x389 -1 x660 = 0 ;
+2 x390 +1 x630 -1 x157 -1 x374 -1 x645 = 0 ;
+2 x375 +1 x615 -1 x143 -1 x359 -1 x630 = 0 ;
+2 x360 +1 x600 -1 x129 -1 x344 -1 x615 = 0 ;
+2 x345 +1 x585 -1 x115 -1 x329 -1 x600 = 0 ;
+2 x330 +1 x570 -1 x101 -1 x314 -1 x585 = 0 ;
+2 x315 +1 x555 -1 x87 -1 x299 -1 x570 = 0 ;
+2 x300 +1 x540 -1 x73 -1 x284 -1 x555 = 0 ;
+2 x285 +1 x525 -1 x59 -1 x269 -1 x540 = 0 ;
+2 x270 +1 x510 -1 x45 -1 x525 = 0 ;
+1 x510 -1 x750 = 0 ;
-1 x241 +1 x15 >= 0 ;
-1 x241 +1 x16 >= 0 ;
+1 x241 -1 x15 -1 x16 >= -1 ;
-1 x227 +1 x14 >= 0 ;
-1 x227 +1 x17 >= 0 ;
+1 x227 -1 x14 -1 x17 >= -1 ;
-1 x213 +1 x13 >= 0 ;
-1 x213 +1 x18 >= 0 ;
+1 x213 -1 x13 -1 x18 >= -1 ;
-1 x199 +1 x12 >= 0 ;
-1 x199 +1 x19 >= 0 ;
+1 x199 -1 x12 -1 x19 >= -1 ;
-1 x185 +1 x11 >= 0 ;
-1 x185 +1 x20 >= 0 ;
+1 x185 -1 x11 -1 x20 >= -1 ;
-1 x171 +1 x10 >= 0 ;
-1 x171 +1 x21 >= 0 ;
+1 x171 -1 x10 -1 x21 >= -1 ;
-1 x157 +1 x9 >= 0 ;
-1 x157 +1 x22 >= 0 ;
+1 x157 -1 x9 -1 x22 >= -1 ;
-1 x143 +1 x8 >= 0 ;
-1 x143 +1 x23 >= 0 ;
+1 x143 -1 x8 -1 x23 >= -1 ;
-1 x129 +1 x7 >= 0 ;
-1 x129 +1 x24 >= 0 ;
+1 x129 -1 x7 -1 x24 >= -1 ;
-1 x115 +1 x6 >= 0 ;
-1 x115 +1 x25 >= 0 ;
+1 x115 -1 x6 -1 x25 >= -1 ;
-1 x101 +1 x5 >= 0 ;
-1 x101 +1 x26 >= 0 ;
+1 x101 -1 x5 -1 x26 >= -1 ;
-1 x87 +1 x4 >= 0 ;
-1 x87 +1 x27 >= 0 ;
+1 x87 -1 x4 -1 x27 >= -1 ;
-1 x73 +1 x3 >= 0 ;
-1 x73 +1 x28 >= 0 ;
+1 x73 -1 x3 -1 x28 >= -1 ;
-1 x59 +1 x2 >= 0 ;
-1 x59 +1 x29 >= 0 ;
+1 x59 -1 x2 -1 x29 >= -1 ;
-1 x45 +1 x1 >= 0 ;
-1 x45 +1 x30 >= 0 ;
+1 x45 -1 x1 -1 x30 >= -1 ;
+2 x481 +1 x721 -1 x242 -1 x465 = 0 ;
+2 x466 +1 x706 -1 x228 -1 x450 -1 x721 = 0 ;
+2 x451 +1 x691 -1 x214 -1 x435 -1 x706 = 0 ;
+2 x436 +1 x676 -1 x200 -1 x420 -1 x691 = 0 ;
+2 x421 +1 x661 -1 x186 -1 x405 -1 x676 = 0 ;
+2 x406 +1 x646 -1 x172 -1 x390 -1 x661 = 0 ;
+2 x391 +1 x631 -1 x158 -1 x375 -1 x646 = 0 ;
+2 x376 +1 x616 -1 x144 -1 x360 -1 x631 = 0 ;
+2 x361 +1 x601 -1 x130 -1 x345 -1 x616 = 0 ;
+2 x346 +1 x586 -1 x116 -1 x330 -1 x601 = 0 ;
+2 x331 +1 x571 -1 x102 -1 x315 -1 x586 = 0 ;
+2 x316 +1 x556 -1 x88 -1 x300 -1 x571 = 0 ;
+2 x301 +1 x541 -1 x74 -1 x285 -1 x556 = 0 ;
+2 x286 +1 x526 -1 x60 -1 x270 -1 x541 = 0 ;
+1 x526 -1 x751 = 0 ;
-1 x242 +1 x15 >= 0 ;
-1 x242 +1 x17 >= 0 ;
+1 x242 -1 x15 -1 x17 >= -1 ;
-1 x228 +1 x14 >= 0 ;
-1 x228 +1 x18 >= 0 ;
+1 x228 -1 x14 -1 x18 >= -1 ;
-1 x214 +1 x13 >= 0 ;
-1 x214 +1 x19 >= 0 ;
+1 x214 -1 x13 -1 x19 >= -1 ;
-1 x200 +1 x12 >= 0 ;
-1 x200 +1 x20 >= 0 ;
+1 x200 -1 x12 -1 x20 >= -1 ;
-1 x186 +1 x11 >= 0 ;
-1 x186 +1 x21 >= 0 ;
+1 x186 -1 x11 -1 x21 >= -1 ;
-1 x172 +1 x10 >= 0 ;
-1 x172 +1 x22 >= 0 ;
+1 x172 -1 x10 -1 x22 >= -1 ;
-1 x158 +1 x9 >= 0 ;
-1 x158 +1 x23 >= 0 ;
+1 x158 -1 x9 -1 x23 >= -1 ;
-1 x144 +1 x8 >= 0 ;
-1 x144 +1 x24 >= 0 ;
+1 x144 -1 x8 -1 x24 >= -1 ;
-1 x130 +1 x7 >= 0 ;
-1 x130 +1 x25 >= 0 ;
+1 x130 -1 x7 -1 x25 >= -1 ;
-1 x116 +1 x6 >= 0 ;
-1 x116 +1 x26 >= 0 ;
+1 x116 -1 x6 -1 x26 >= -1 ;
-1 x102 +1 x5 >= 0 ;
-1 x102 +1 x27 >= 0 ;
+1 x102 -1 x5 -1 x27 >= -1 ;
-1 x88 +1 x4 >= 0 ;
-1 x88 +1 x28 >= 0 ;
+1 x88 -1 x4 -1 x28 >= -1 ;
-1 x74 +1 x3 >= 0 ;
-1 x74 +1 x29 >= 0 ;
+1 x74 -1 x3 -1 x29 >= -1 ;
-1 x60 +1 x2 >= 0 ;
-1 x60 +1 x30 >= 0 ;
+1 x60 -1 x2 -1 x30 >= -1 ;
+2 x482 +1 x722 -1 x243 -1 x466 -1 x481 = 0 ;
+2 x467 +1 x707 -1 x229 -1 x451 -1 x722 = 0 ;
+2 x452 +1 x692 -1 x215 -1 x436 -1 x707 = 0 ;
+2 x437 +1 x677 -1 x201 -1 x421 -1 x692 = 0 ;
+2 x422 +1 x662 -1 x187 -1 x406 -1 x677 = 0 ;
+2 x407 +1 x647 -1 x173 -1 x391 -1 x662 = 0 ;
+2 x392 +1 x632 -1 x159 -1 x376 -1 x647 = 0 ;
+2 x377 +1 x617 -1 x145 -1 x361 -1 x632 = 0 ;
+2 x362 +1 x602 -1 x131 -1 x346 -1 x617 = 0 ;
+2 x347 +1 x587 -1 x117 -1 x331 -1 x602 = 0 ;
+2 x332 +1 x572 -1 x103 -1 x316 -1 x587 = 0 ;
+2 x317 +1 x557 -1 x89 -1 x301 -1 x572 = 0 ;
+2 x302 +1 x542 -1 x75 -1 x286 -1 x557 = 0 ;
+1 x542 -1 x752 = 0 ;
-1 x243 +1 x15 >= 0 ;
-1 x243 +1 x18 >= 0 ;
+1 x243 -1 x15 -1 x18 >= -1 ;
-1 x229 +1 x14 >= 0 ;
-1 x229 +1 x19 >= 0 ;
+1 x229 -1 x14 -1 x19 >= -1 ;
-1 x215 +1 x13 >= 0 ;
-1 x215 +1 x20 >= 0 ;
+1 x215 -1 x13 -1 x20 >= -1 ;
-1 x201 +1 x12 >= 0 ;
-1 x201 +1 x21 >= 0 ;
+1 x201 -1 x12 -1 x21 >= -1 ;
-1 x187 +1 x11 >= 0 ;
-1 x187 +1 x22 >= 0 ;
+1 x187 -1 x11 -1 x22 >= -1 ;
-1 x173 +1 x10 >= 0 ;
-1 x173 +1 x23 >= 0 ;
+1 x173 -1 x10 -1 x23 >= -1 ;
-1 x159 +1 x9 >= 0 ;
-1 x159 +1 x24 >= 0 ;
+1 x159 -1 x9 -1 x24 >= -1 ;
-1 x145 +1 x8 >= 0 ;
-1 x145 +1 x25 >= 0 ;
+1 x145 -1 x8 -1 x25 >= -1 ;
-1 x131 +1 x7 >= 0 ;
-1 x131 +1 x26 >= 0 ;
+1 x131 -1 x7 -1 x26 >= -1 ;
-1 x117 +1 x6 >= 0 ;
-1 x117 +1 x27 >= 0 ;
+1 x117 -1 x6 -1 x27 >= -1 ;
-1 x103 +1 x5 >= 0 ;
-1 x103 +1 x28 >= 0 ;
+1 x103 -1 x5 -1 x28 >= -1 ;
-1 x89 +1 x4 >= 0 ;
-1 x89 +1 x29 >= 0 ;
+1 x89 -1 x4 -1 x29 >= -1 ;
-1 x75 +1 x3 >= 0 ;
-1 x75 +1 x30 >= 0 ;
+1 x75 -1 x3 -1 x30 >= -1 ;
+2 x483 +1 x723 -1 x244 -1 x467 -1 x482 = 0 ;
+2 x468 +1 x708 -1 x230 -1 x452 -1 x723 = 0 ;
+2 x453 +1 x693 -1 x216 -1 x437 -1 x708 = 0 ;
+2 x438 +1 x678 -1 x202 -1 x422 -1 x693 = 0 ;
+2 x423 +1 x663 -1 x188 -1 x407 -1 x678 = 0 ;
+2 x408 +1 x648 -1 x174 -1 x392 -1 x663 = 0 ;
+2 x393 +1 x633 -1 x160 -1 x377 -1 x648 = 0 ;
+2 x378 +1 x618 -1 x146 -1 x362 -1 x633 = 0 ;
+2 x363 +1 x603 -1 x132 -1 x347 -1 x618 = 0 ;
+2 x348 +1 x588 -1 x118 -1 x332 -1 x603 = 0 ;
+2 x333 +1 x573 -1 x104 -1 x317 -1 x588 = 0 ;
+2 x318 +1 x558 -1 x90 -1 x302 -1 x573 = 0 ;
+1 x558 -1 x753 = 0 ;
-1 x244 +1 x15 >= 0 ;
-1 x244 +1 x19 >= 0 ;
+1 x244 -1 x15 -1 x19 >= -1 ;
-1 x230 +1 x14 >= 0 ;
-1 x230 +1 x20 >= 0 ;
+1 x230 -1 x14 -1 x20 >= -1 ;
-1 x216 +1 x13 >= 0 ;
-1 x216 +1 x21 >= 0 ;
+1 x216 -1 x13 -1 x21 >= -1 ;
-1 x202 +1 x12 >= 0 ;
-1 x202 +1 x22 >= 0 ;
+1 x202 -1 x12 -1 x22 >= -1 ;
-1 x188 +1 x11 >= 0 ;
-1 x188 +1 x23 >= 0 ;
+1 x188 -1 x11 -1 x23 >= -1 ;
-1 x174 +1 x10 >= 0 ;
-1 x174 +1 x24 >= 0 ;
+1 x174 -1 x10 -1 x24 >= -1 ;
-1 x160 +1 x9 >= 0 ;
-1 x160 +1 x25 >= 0 ;
+1 x160 -1 x9 -1 x25 >= -1 ;
-1 x146 +1 x8 >= 0 ;
-1 x146 +1 x26 >= 0 ;
+1 x146 -1 x8 -1 x26 >= -1 ;
-1 x132 +1 x7 >= 0 ;
-1 x132 +1 x27 >= 0 ;
+1 x132 -1 x7 -1 x27 >= -1 ;
-1 x118 +1 x6 >= 0 ;
-1 x118 +1 x28 >= 0 ;
+1 x118 -1 x6 -1 x28 >= -1 ;
-1 x104 +1 x5 >= 0 ;
-1 x104 +1 x29 >= 0 ;
+1 x104 -1 x5 -1 x29 >= -1 ;
-1 x90 +1 x4 >= 0 ;
-1 x90 +1 x30 >= 0 ;
+1 x90 -1 x4 -1 x30 >= -1 ;
+2 x484 +1 x724 -1 x245 -1 x468 -1 x483 = 0 ;
+2 x469 +1 x709 -1 x231 -1 x453 -1 x724 = 0 ;
+2 x454 +1 x694 -1 x217 -1 x438 -1 x709 = 0 ;
+2 x439 +1 x679 -1 x203 -1 x423 -1 x694 = 0 ;
+2 x424 +1 x664 -1 x189 -1 x408 -1 x679 = 0 ;
+2 x409 +1 x649 -1 x175 -1 x393 -1 x664 = 0 ;
+2 x394 +1 x634 -1 x161 -1 x378 -1 x649 = 0 ;
+2 x379 +1 x619 -1 x147 -1 x363 -1 x634 = 0 ;
+2 x364 +1 x604 -1 x133 -1 x348 -1 x619 = 0 ;
+2 x349 +1 x589 -1 x119 -1 x333 -1 x604 = 0 ;
+2 x334 +1 x574 -1 x105 -1 x318 -1 x589 = 0 ;
+1 x574 -1 x754 = 0 ;
-1 x245 +1 x15 >= 0 ;
-1 x245 +1 x20 >= 0 ;
+1 x245 -1 x15 -1 x20 >= -1 ;
-1 x231 +1 x14 >= 0 ;
-1 x231 +1 x21 >= 0 ;
+1 x231 -1 x14 -1 x21 >= -1 ;
-1 x217 +1 x13 >= 0 ;
-1 x217 +1 x22 >= 0 ;
+1 x217 -1 x13 -1 x22 >= -1 ;
-1 x203 +1 x12 >= 0 ;
-1 x203 +1 x23 >= 0 ;
+1 x203 -1 x12 -1 x23 >= -1 ;
-1 x189 +1 x11 >= 0 ;
-1 x189 +1 x24 >= 0 ;
+1 x189 -1 x11 -1 x24 >= -1 ;
-1 x175 +1 x10 >= 0 ;
-1 x175 +1 x25 >= 0 ;
+1 x175 -1 x10 -1 x25 >= -1 ;
-1 x161 +1 x9 >= 0 ;
-1 x161 +1 x26 >= 0 ;
+1 x161 -1 x9 -1 x26 >= -1 ;
-1 x147 +1 x8 >= 0 ;
-1 x147 +1 x27 >= 0 ;
+1 x147 -1 x8 -1 x27 >= -1 ;
-1 x133 +1 x7 >= 0 ;
-1 x133 +1 x28 >= 0 ;
+1 x133 -1 x7 -1 x28 >= -1 ;
-1 x119 +1 x6 >= 0 ;
-1 x119 +1 x29 >= 0 ;
+1 x119 -1 x6 -1 x29 >= -1 ;
-1 x105 +1 x5 >= 0 ;
-1 x105 +1 x30 >= 0 ;
+1 x105 -1 x5 -1 x30 >= -1 ;
+2 x485 +1 x725 -1 x246 -1 x469 -1 x484 = 0 ;
+2 x470 +1 x710 -1 x232 -1 x454 -1 x725 = 0 ;
+2 x455 +1 x695 -1 x218 -1 x439 -1 x710 = 0 ;
+2 x440 +1 x680 -1 x204 -1 x424 -1 x695 = 0 ;
+2 x425 +1 x665 -1 x190 -1 x409 -1 x680 = 0 ;
+2 x410 +1 x650 -1 x176 -1 x394 -1 x665 = 0 ;
+2 x395 +1 x635 -1 x162 -1 x379 -1 x650 = 0 ;
+2 x380 +1 x620 -1 x148 -1 x364 -1 x635 = 0 ;
+2 x365 +1 x605 -1 x134 -1 x349 -1 x620 = 0 ;
+2 x350 +1 x590 -1 x120 -1 x334 -1 x605 = 0 ;
+1 x590 -1 x755 = 0 ;
-1 x246 +1 x15 >= 0 ;
-1 x246 +1 x21 >= 0 ;
+1 x246 -1 x15 -1 x21 >= -1 ;
-1 x232 +1 x14 >= 0 ;
-1 x232 +1 x22 >= 0 ;
+1 x232 -1 x14 -1 x22 >= -1 ;
-1 x218 +1 x13 >= 0 ;
-1 x218 +1 x23 >= 0 ;
+1 x218 -1 x13 -1 x23 >= -1 ;
-1 x204 +1 x12 >= 0 ;
-1 x204 +1 x24 >= 0 ;
+1 x204 -1 x12 -1 x24 >= -1 ;
-1 x190 +1 x11 >= 0 ;
-1 x190 +1 x25 >= 0 ;
+1 x190 -1 x11 -1 x25 >= -1 ;
-1 x176 +1 x10 >= 0 ;
-1 x176 +1 x26 >= 0 ;
+1 x176 -1 x10 -1 x26 >= -1 ;
-1 x162 +1 x9 >= 0 ;
-1 x162 +1 x27 >= 0 ;
+1 x162 -1 x9 -1 x27 >= -1 ;
-1 x148 +1 x8 >= 0 ;
-1 x148 +1 x28 >= 0 ;
+1 x148 -1 x8 -1 x28 >= -1 ;
-1 x134 +1 x7 >= 0 ;
-1 x134 +1 x29 >= 0 ;
+1 x134 -1 x7 -1 x29 >= -1 ;
-1 x120 +1 x6 >= 0 ;
-1 x120 +1 x30 >= 0 ;
+1 x120 -1 x6 -1 x30 >= -1 ;
+2 x486 +1 x726 -1 x247 -1 x470 -1 x485 = 0 ;
+2 x471 +1 x711 -1 x233 -1 x455 -1 x726 = 0 ;
+2 x456 +1 x696 -1 x219 -1 x440 -1 x711 = 0 ;
+2 x441 +1 x681 -1 x205 -1 x425 -1 x696 = 0 ;
+2 x426 +1 x666 -1 x191 -1 x410 -1 x681 = 0 ;
+2 x411 +1 x651 -1 x177 -1 x395 -1 x666 = 0 ;
+2 x396 +1 x636 -1 x163 -1 x380 -1 x651 = 0 ;
+2 x381 +1 x621 -1 x149 -1 x365 -1 x636 = 0 ;
+2 x366 +1 x606 -1 x135 -1 x350 -1 x621 = 0 ;
+1 x606 -1 x756 = 0 ;
-1 x247 +1 x15 >= 0 ;
-1 x247 +1 x22 >= 0 ;
+1 x247 -1 x15 -1 x22 >= -1 ;
-1 x233 +1 x14 >= 0 ;
-1 x233 +1 x23 >= 0 ;
+1 x233 -1 x14 -1 x23 >= -1 ;
-1 x219 +1 x13 >= 0 ;
-1 x219 +1 x24 >= 0 ;
+1 x219 -1 x13 -1 x24 >= -1 ;
-1 x205 +1 x12 >= 0 ;
-1 x205 +1 x25 >= 0 ;
+1 x205 -1 x12 -1 x25 >= -1 ;
-1 x191 +1 x11 >= 0 ;
-1 x191 +1 x26 >= 0 ;
+1 x191 -1 x11 -1 x26 >= -1 ;
-1 x177 +1 x10 >= 0 ;
-1 x177 +1 x27 >= 0 ;
+1 x177 -1 x10 -1 x27 >= -1 ;
-1 x163 +1 x9 >= 0 ;
-1 x163 +1 x28 >= 0 ;
+1 x163 -1 x9 -1 x28 >= -1 ;
-1 x149 +1 x8 >= 0 ;
-1 x149 +1 x29 >= 0 ;
+1 x149 -1 x8 -1 x29 >= -1 ;
-1 x135 +1 x7 >= 0 ;
-1 x135 +1 x30 >= 0 ;
+1 x135 -1 x7 -1 x30 >= -1 ;
+2 x487 +1 x727 -1 x248 -1 x471 -1 x486 = 0 ;
+2 x472 +1 x712 -1 x234 -1 x456 -1 x727 = 0 ;
+2 x457 +1 x697 -1 x220 -1 x441 -1 x712 = 0 ;
+2 x442 +1 x682 -1 x206 -1 x426 -1 x697 = 0 ;
+2 x427 +1 x667 -1 x192 -1 x411 -1 x682 = 0 ;
+2 x412 +1 x652 -1 x178 -1 x396 -1 x667 = 0 ;
+2 x397 +1 x637 -1 x164 -1 x381 -1 x652 = 0 ;
+2 x382 +1 x622 -1 x150 -1 x366 -1 x637 = 0 ;
+1 x622 -1 x757 = 0 ;
-1 x248 +1 x15 >= 0 ;
-1 x248 +1 x23 >= 0 ;
+1 x248 -1 x15 -1 x23 >= -1 ;
-1 x234 +1 x14 >= 0 ;
-1 x234 +1 x24 >= 0 ;
+1 x234 -1 x14 -1 x24 >= -1 ;
-1 x220 +1 x13 >= 0 ;
-1 x220 +1 x25 >= 0 ;
+1 x220 -1 x13 -1 x25 >= -1 ;
-1 x206 +1 x12 >= 0 ;
-1 x206 +1 x26 >= 0 ;
+1 x206 -1 x12 -1 x26 >= -1 ;
-1 x192 +1 x11 >= 0 ;
-1 x192 +1 x27 >= 0 ;
+1 x192 -1 x11 -1 x27 >= -1 ;
-1 x178 +1 x10 >= 0 ;
-1 x178 +1 x28 >= 0 ;
+1 x178 -1 x10 -1 x28 >= -1 ;
-1 x164 +1 x9 >= 0 ;
-1 x164 +1 x29 >= 0 ;
+1 x164 -1 x9 -1 x29 >= -1 ;
-1 x150 +1 x8 >= 0 ;
-1 x150 +1 x30 >= 0 ;
+1 x150 -1 x8 -1 x30 >= -1 ;
+2 x488 +1 x728 -1 x249 -1 x472 -1 x487 = 0 ;
+2 x473 +1 x713 -1 x235 -1 x457 -1 x728 = 0 ;
+2 x458 +1 x698 -1 x221 -1 x442 -1 x713 = 0 ;
+2 x443 +1 x683 -1 x207 -1 x427 -1 x698 = 0 ;
+2 x428 +1 x668 -1 x193 -1 x412 -1 x683 = 0 ;
+2 x413 +1 x653 -1 x179 -1 x397 -1 x668 = 0 ;
+2 x398 +1 x638 -1 x165 -1 x382 -1 x653 = 0 ;
+1 x638 -1 x758 = 0 ;
-1 x249 +1 x15 >= 0 ;
-1 x249 +1 x24 >= 0 ;
+1 x249 -1 x15 -1 x24 >= -1 ;
-1 x235 +1 x14 >= 0 ;
-1 x235 +1 x25 >= 0 ;
+1 x235 -1 x14 -1 x25 >= -1 ;
-1 x221 +1 x13 >= 0 ;
-1 x221 +1 x26 >= 0 ;
+1 x221 -1 x13 -1 x26 >= -1 ;
-1 x207 +1 x12 >= 0 ;
-1 x207 +1 x27 >= 0 ;
+1 x207 -1 x12 -1 x27 >= -1 ;
-1 x193 +1 x11 >= 0 ;
-1 x193 +1 x28 >= 0 ;
+1 x193 -1 x11 -1 x28 >= -1 ;
-1 x179 +1 x10 >= 0 ;
-1 x179 +1 x29 >= 0 ;
+1 x179 -1 x10 -1 x29 >= -1 ;
-1 x165 +1 x9 >= 0 ;
-1 x165 +1 x30 >= 0 ;
+1 x165 -1 x9 -1 x30 >= -1 ;
+2 x489 +1 x729 -1 x250 -1 x473 -1 x488 = 0 ;
+2 x474 +1 x714 -1 x236 -1 x458 -1 x729 = 0 ;
+2 x459 +1 x699 -1 x222 -1 x443 -1 x714 = 0 ;
+2 x444 +1 x684 -1 x208 -1 x428 -1 x699 = 0 ;
+2 x429 +1 x669 -1 x194 -1 x413 -1 x684 = 0 ;
+2 x414 +1 x654 -1 x180 -1 x398 -1 x669 = 0 ;
+1 x654 -1 x759 = 0 ;
-1 x250 +1 x15 >= 0 ;
-1 x250 +1 x25 >= 0 ;
+1 x250 -1 x15 -1 x25 >= -1 ;
-1 x236 +1 x14 >= 0 ;
-1 x236 +1 x26 >= 0 ;
+1 x236 -1 x14 -1 x26 >= -1 ;
-1 x222 +1 x13 >= 0 ;
-1 x222 +1 x27 >= 0 ;
+1 x222 -1 x13 -1 x27 >= -1 ;
-1 x208 +1 x12 >= 0 ;
-1 x208 +1 x28 >= 0 ;
+1 x208 -1 x12 -1 x28 >= -1 ;
-1 x194 +1 x11 >= 0 ;
-1 x194 +1 x29 >= 0 ;
+1 x194 -1 x11 -1 x29 >= -1 ;
-1 x180 +1 x10 >= 0 ;
-1 x180 +1 x30 >= 0 ;
+1 x180 -1 x10 -1 x30 >= -1 ;
+2 x490 +1 x730 -1 x251 -1 x474 -1 x489 = 0 ;
+2 x475 +1 x715 -1 x237 -1 x459 -1 x730 = 0 ;
+2 x460 +1 x700 -1 x223 -1 x444 -1 x715 = 0 ;
+2 x445 +1 x685 -1 x209 -1 x429 -1 x700 = 0 ;
+2 x430 +1 x670 -1 x195 -1 x414 -1 x685 = 0 ;
+1 x670 -1 x760 = 0 ;
-1 x251 +1 x15 >= 0 ;
-1 x251 +1 x26 >= 0 ;
+1 x251 -1 x15 -1 x26 >= -1 ;
-1 x237 +1 x14 >= 0 ;
-1 x237 +1 x27 >= 0 ;
+1 x237 -1 x14 -1 x27 >= -1 ;
-1 x223 +1 x13 >= 0 ;
-1 x223 +1 x28 >= 0 ;
+1 x223 -1 x13 -1 x28 >= -1 ;
-1 x209 +1 x12 >= 0 ;
-1 x209 +1 x29 >= 0 ;
+1 x209 -1 x12 -1 x29 >= -1 ;
-1 x195 +1 x11 >= 0 ;
-1 x195 +1 x30 >= 0 ;
+1 x195 -1 x11 -1 x30 >= -1 ;
+2 x491 +1 x731 -1 x252 -1 x475 -1 x490 = 0 ;
+2 x476 +1 x716 -1 x238 -1 x460 -1 x731 = 0 ;
+2 x461 +1 x701 -1 x224 -1 x445 -1 x716 = 0 ;
+2 x446 +1 x686 -1 x210 -1 x430 -1 x701 = 0 ;
+1 x686 -1 x761 = 0 ;
-1 x252 +1 x15 >= 0 ;
-1 x252 +1 x27 >= 0 ;
+1 x252 -1 x15 -1 x27 >= -1 ;
-1 x238 +1 x14 >= 0 ;
-1 x238 +1 x28 >= 0 ;
+1 x238 -1 x14 -1 x28 >= -1 ;
-1 x224 +1 x13 >= 0 ;
-1 x224 +1 x29 >= 0 ;
+1 x224 -1 x13 -1 x29 >= -1 ;
-1 x210 +1 x12 >= 0 ;
-1 x210 +1 x30 >= 0 ;
+1 x210 -1 x12 -1 x30 >= -1 ;
+2 x492 +1 x732 -1 x253 -1 x476 -1 x491 = 0 ;
+2 x477 +1 x717 -1 x239 -1 x461 -1 x732 = 0 ;
+2 x462 +1 x702 -1 x225 -1 x446 -1 x717 = 0 ;
+1 x702 -1 x762 = 0 ;
-1 x253 +1 x15 >= 0 ;
-1 x253 +1 x28 >= 0 ;
+1 x253 -1 x15 -1 x28 >= -1 ;
-1 x239 +1 x14 >= 0 ;
-1 x239 +1 x29 >= 0 ;
+1 x239 -1 x14 -1 x29 >= -1 ;
-1 x225 +1 x13 >= 0 ;
-1 x225 +1 x30 >= 0 ;
+1 x225 -1 x13 -1 x30 >= -1 ;
+2 x493 +1 x733 -1 x254 -1 x477 -1 x492 = 0 ;
+2 x478 +1 x718 -1 x240 -1 x462 -1 x733 = 0 ;
+1 x718 -1 x763 = 0 ;
-1 x254 +1 x15 >= 0 ;
-1 x254 +1 x29 >= 0 ;
+1 x254 -1 x15 -1 x29 >= -1 ;
-1 x240 +1 x14 >= 0 ;
-1 x240 +1 x30 >= 0 ;
+1 x240 -1 x14 -1 x30 >= -1 ;
+2 x494 +1 x734 -1 x255 -1 x478 -1 x493 = 0 ;
+1 x734 -1 x764 = 0 ;
-1 x255 +1 x15 >= 0 ;
-1 x255 +1 x30 >= 0 ;
+1 x255 -1 x15 -1 x30 >= -1 ;
+1 x494 -1 x765 = 0 ;
